; benchmark generated from python API
(set-info :status unknown)
(declare-datatypes ((RealState 0)) (((RMk1 (rval1 Real)) (RMk2 (rval2 Real)))))
 (assert
 (forall ((|v17:0| Real) )(forall ((|v16:1| Real) )(forall ((|v15:2| Real) )(forall ((|v14:3| Real) )(forall ((|v13:4| Real) )(forall ((|v12:5| Real) )(exists ((|v11:6_st| RealState) (val!7542 Real) )(exists ((|v10:7_st| RealState) (val!7543 Real) )(exists ((|v9:8_st| RealState) (val!7544 Real) )(exists ((|v8:9_st| RealState) (val!7545 Real) )(exists ((|v7:10_st| RealState) (val!7546 Real) )(exists ((|v6:11_st| RealState) (val!7547 Real) )(forall ((|v5:12| Real) )(forall ((|v4:13| Real) )(forall ((|v3:14| Real) )(forall ((|v2:15| Real) )(forall ((|v1:16| Real) )(forall ((|v0:17| Real) )(let ((?x1053 (- 20.0)))
 (let ((?x334 (+ (+ (+ (* (- 12.0) (rval2 |v9:8_st|)) (* 15.0 |v4:13|)) (* 4.0 |v1:16|)) (* (- 15.0) (rval2 |v7:10_st|)))))
 (let ((?x1561 (- 17.0)))
 (let ((?x524 (rval2 |v8:9_st|)))
 (let ((?x3230 (* 8.0 ?x524)))
 (let ((?x1645 (+ (+ (+ (* 19.0 (rval2 |v7:10_st|)) (* (- 14.0) |v3:14|)) (* 7.0 |v12:5|)) ?x3230)))
 (let ((?x1094 (- 19.0)))
 (let ((?x478 (- 10.0)))
 (let ((?x1739 (* ?x478 |v1:16|)))
 (let ((?x2850 (+ (+ (+ (* (- 15.0) |v16:1|) (* 20.0 |v4:13|)) (* 12.0 (rval2 |v10:7_st|))) ?x1739)))
 (let ((?x1731 (* 16.0 |v0:17|)))
 (let ((?x3158 (+ (+ (+ (* 15.0 |v15:2|) (* 19.0 (rval2 |v7:10_st|))) (* (- 13.0) |v4:13|)) ?x1731)))
 (let (($x1336 (and (and (<= ?x3158 19.0) (<= ?x2850 ?x1094)) (or (<= ?x1645 ?x1561) (<= ?x334 ?x1053)))))
 (let ((?x1770 (+ (+ (+ (* 16.0 (rval2 |v9:8_st|)) (* ?x1561 |v12:5|)) (* 10.0 |v1:16|)) (* 10.0 |v12:5|))))
 (let ((?x2696 (* 4.0 |v13:4|)))
 (let ((?x1260 (* ?x1053 |v2:15|)))
 (let ((?x1276 (+ (+ (+ (* (- 3.0) (rval2 |v11:6_st|)) (* (- 8.0) |v13:4|)) ?x1260) ?x2696)))
 (let ((?x1950 (+ (+ (+ (* ?x1561 |v1:16|) (* 15.0 |v15:2|)) (* 2.0 (rval2 |v10:7_st|))) (* (- 1.0) (rval2 |v7:10_st|)))))
 (let ((?x1066 (+ (+ (+ (* 19.0 |v13:4|) (* (- 11.0) (rval2 |v10:7_st|))) (* 10.0 |v5:12|)) |v4:13|)))
 (let (($x1806 (or (or (<= ?x1066 16.0) (<= ?x1950 ?x1094)) (and (<= ?x1276 17.0) (<= ?x1770 6.0)))))
 (let ((?x1442 (+ (+ (+ (* ?x1094 |v5:12|) (* 10.0 (rval2 |v11:6_st|))) (* (- 2.0) |v4:13|)) (* (- 11.0) |v17:0|))))
 (let ((?x566 (- 13.0)))
 (let ((?x1339 (+ (+ (* 3.0 |v14:3|) (* 11.0 (rval2 |v9:8_st|))) (* 3.0 (rval2 |v9:8_st|)))))
 (let ((?x3401 (- 6.0)))
 (let ((?x245 (* ?x3401 |v2:15|)))
 (let (($x502 (<= (+ (+ (+ (rval2 |v10:7_st|) (* ?x1561 |v12:5|)) (* (- 9.0) |v1:16|)) ?x245) 13.0)))
 (let ((?x2948 (- 15.0)))
 (let ((?x2987 (+ (+ (+ (* 0.0 ?x524) (* (- 14.0) |v3:14|)) (rval2 |v9:8_st|)) (* (- 7.0) ?x524))))
 (let (($x3102 (or (or (<= ?x2987 ?x2948) $x502) (or (<= (+ ?x1339 (* 19.0 |v14:3|)) ?x566) (<= ?x1442 ?x478)))))
 (let ((?x240 (+ (+ (+ (* 15.0 |v14:3|) (* 14.0 |v0:17|)) (* 10.0 |v17:0|)) (* (- 18.0) (rval2 |v10:7_st|)))))
 (let ((?x1750 (+ (+ (+ (* ?x566 ?x524) (* (- 5.0) |v14:3|)) (* ?x478 (rval2 |v11:6_st|))) (* 2.0 (rval2 |v6:11_st|)))))
 (let ((?x283 (* 18.0 |v5:12|)))
 (let ((?x2309 (+ (+ (+ (* 12.0 (rval2 |v11:6_st|)) (* 13.0 ?x524)) (* ?x1053 |v13:4|)) ?x283)))
 (let ((?x1487 (- 16.0)))
 (let ((?x2093 (+ (+ (+ (* ?x566 |v5:12|) (* ?x3401 |v0:17|)) (* 14.0 |v1:16|)) (* (- 7.0) |v1:16|))))
 (let (($x2941 (<= ?x2093 ?x1487)))
 (let (($x1349 (or (or $x2941 (<= ?x2309 ?x478)) (or (<= ?x1750 1.0) (<= ?x240 11.0)))))
 (let ((?x1510 (+ (+ (* 15.0 (rval2 |v9:8_st|)) (* 9.0 (rval2 |v11:6_st|))) (* 13.0 |v15:2|))))
 (let ((?x1827 (+ (+ (* 2.0 |v0:17|) (* ?x3401 |v1:16|)) (* (- 1.0) |v5:12|))))
 (let (($x1322 (and (<= (+ ?x1827 (* ?x1487 (rval2 |v6:11_st|))) ?x478) (<= (+ ?x1510 (* (- 3.0) |v13:4|)) 5.0))))
 (let ((?x3120 (rval2 |v11:6_st|)))
 (let ((?x2994 (* 3.0 ?x3120)))
 (let ((?x1303 (+ (+ (+ (* 13.0 |v13:4|) (* 13.0 (rval2 |v10:7_st|))) (* (- 3.0) |v4:13|)) ?x2994)))
 (let ((?x645 (* ?x566 |v0:17|)))
 (let ((?x1235 (+ (+ (+ (* 8.0 (rval2 |v7:10_st|)) (* (- 2.0) |v0:17|)) (* 13.0 |v0:17|)) ?x645)))
 (let ((?x3478 (* 2.0 |v4:13|)))
 (let ((?x2894 (+ (+ (+ (* 5.0 |v15:2|) (* (- 12.0) ?x3120)) (* (- 11.0) |v0:17|)) ?x3478)))
 (let ((?x743 (* 5.0 |v15:2|)))
 (let (($x1752 (<= (+ (+ (+ (* 13.0 |v5:12|) (* (- 9.0) |v13:4|)) (rval2 |v6:11_st|)) ?x743) 15.0)))
 (let ((?x2505 (- 18.0)))
 (let (($x3074 (<= (+ (+ (+ (* 11.0 |v2:15|) |v16:1|) (* (- 12.0) |v5:12|)) ?x1260) ?x2505)))
 (let ((?x887 (+ (+ (+ (* ?x1053 ?x3120) (* ?x1053 (rval2 |v6:11_st|))) (* ?x1094 (rval2 |v10:7_st|))) (* 19.0 |v16:1|))))
 (let (($x1698 (or (or (or (<= ?x887 1.0) $x3074) (and $x1752 (<= ?x2894 18.0))) (or (and (<= ?x1235 ?x478) (<= ?x1303 1.0)) $x1322))))
 (let ((?x1576 (* 10.0 |v2:15|)))
 (let (($x1321 (<= (+ (+ (+ (* ?x2948 |v3:14|) (* 18.0 ?x524)) (* 18.0 ?x524)) ?x1576) 8.0)))
 (let ((?x3320 (* 7.0 |v15:2|)))
 (let ((?x1065 (* 2.0 |v2:15|)))
 (let ((?x2808 (+ (+ (+ (* (- 2.0) (rval2 |v6:11_st|)) (* (- 8.0) |v14:3|)) ?x1065) ?x3320)))
 (let ((?x832 (- 5.0)))
 (let ((?x501 (+ (+ (+ (* 13.0 |v4:13|) (* (- 9.0) |v17:0|)) (* ?x1094 |v0:17|)) (* 17.0 |v17:0|))))
 (let ((?x523 (+ (+ (+ (* (- 4.0) (rval2 |v9:8_st|)) (* ?x2948 |v16:1|)) (* 15.0 |v5:12|)) (* 19.0 |v17:0|))))
 (let ((?x2439 (* 10.0 |v3:14|)))
 (let ((?x568 (+ (+ (* (- 1.0) |v1:16|) (* (- 4.0) |v4:13|)) ?x2439)))
 (let ((?x3312 (rval2 |v9:8_st|)))
 (let ((?x5 (* 20.0 ?x3312)))
 (let ((?x2827 (+ (+ (+ (* 8.0 (rval2 |v7:10_st|)) (* ?x1094 |v1:16|)) (* (- 2.0) |v15:2|)) ?x5)))
 (let ((?x2299 (- 1.0)))
 (let ((?x3204 (+ (+ (+ (* (- 12.0) |v14:3|) (* 4.0 |v12:5|)) (* (- 14.0) |v1:16|)) |v1:16|)))
 (let (($x3364 (and (and (<= ?x3204 ?x2299) (<= ?x2827 3.0)) (or (<= (+ ?x568 (* (- 9.0) |v16:1|)) 2.0) (<= ?x523 12.0)))))
 (let (($x664 (and (and (or $x3364 (or (or (<= ?x501 ?x832) (<= ?x2808 13.0)) $x1321)) $x1698) (and (or $x1349 $x3102) (or $x1806 $x1336)))))
 (let ((?x3314 (- 4.0)))
 (let ((?x218 (rval2 |v7:10_st|)))
 (let ((?x1348 (* ?x2505 ?x218)))
 (let ((?x1977 (+ (+ (+ (* (- 7.0) |v15:2|) (* (- 3.0) |v17:0|)) ?x1348) (* 4.0 |v15:2|))))
 (let ((?x1571 (* 15.0 ?x3312)))
 (let (($x1046 (<= (+ (+ (+ (* 12.0 ?x3312) (* ?x478 |v3:14|)) (* 5.0 ?x3312)) ?x1571) 13.0)))
 (let ((?x2359 (+ (+ (+ ?x1348 (* 19.0 |v15:2|)) (* ?x478 (rval2 |v10:7_st|))) (* 12.0 (rval2 |v6:11_st|)))))
 (let (($x2999 (<= (+ (+ (+ (* ?x3401 |v15:2|) (* 10.0 |v13:4|)) |v12:5|) (* ?x2505 |v2:15|)) 11.0)))
 (let ((?x1191 (+ (+ (+ (* ?x3314 ?x524) (* 16.0 ?x3312)) (* 20.0 ?x218)) (* ?x1094 ?x3120))))
 (let (($x2223 (and (<= ?x1191 16.0) (and (and $x2999 (<= ?x2359 19.0)) (or $x1046 (<= ?x1977 ?x3314))))))
 (let ((?x2819 (+ (+ (+ (* 5.0 ?x218) (* 5.0 |v0:17|)) (* ?x3401 |v12:5|)) (* ?x3314 ?x3120))))
 (let (($x1946 (<= (+ (+ (+ ?x3230 (* 15.0 |v3:14|)) (* 19.0 ?x218)) (* 5.0 ?x3120)) ?x1487)))
 (let ((?x1670 (* 17.0 ?x218)))
 (let (($x1818 (<= (+ (+ (+ (* ?x2948 ?x3312) (* (- 11.0) ?x3312)) (* 2.0 |v14:3|)) ?x1670) 19.0)))
 (let ((?x2856 (- 9.0)))
 (let ((?x1149 (+ (+ (+ (* 8.0 |v4:13|) (* 5.0 |v3:14|)) (* ?x832 |v1:16|)) (* 0.0 |v5:12|))))
 (let (($x2789 (<= ?x1149 ?x2856)))
 (let ((?x2698 (* 13.0 ?x3312)))
 (let (($x1316 (<= (+ (+ (+ (* 12.0 |v12:5|) (* 9.0 ?x524)) (* 13.0 |v17:0|)) ?x2698) 1.0)))
 (let ((?x1317 (* 4.0 ?x3120)))
 (let (($x2831 (<= (+ (+ (+ (* 10.0 ?x524) (* ?x1053 ?x3312)) (* 10.0 |v17:0|)) ?x1317) 18.0)))
 (let ((?x2410 (+ (+ (+ (* ?x2948 (rval2 |v6:11_st|)) (* ?x1053 |v12:5|)) (* 19.0 |v2:15|)) (* ?x2299 |v12:5|))))
 (let ((?x2933 (- 3.0)))
 (let ((?x3375 (* ?x832 |v5:12|)))
 (let (($x733 (<= (+ (+ (+ (* (- 14.0) |v14:3|) (* 14.0 |v17:0|)) (* ?x2505 |v16:1|)) ?x3375) ?x2933)))
 (let (($x986 (or (and (or $x733 (<= ?x2410 2.0)) (and $x2831 $x1316)) (and (and $x2789 $x1818) (or $x1946 (<= ?x2819 16.0))))))
 (let ((?x1185 (- 11.0)))
 (let ((?x273 (* ?x1185 |v4:13|)))
 (let ((?x2498 (+ (+ (+ (* 18.0 |v15:2|) (* 15.0 (rval2 |v6:11_st|))) (* 18.0 |v2:15|)) ?x273)))
 (let ((?x864 (* ?x566 |v5:12|)))
 (let ((?x1481 (+ (+ (+ (* ?x2505 (rval2 |v6:11_st|)) (* ?x566 ?x218)) (* 5.0 |v17:0|)) ?x864)))
 (let ((?x3122 (+ (+ (+ (* ?x2505 ?x524) (* ?x478 (rval2 |v6:11_st|))) (* 15.0 ?x218)) (* ?x1053 |v14:3|))))
 (let ((?x2576 (* 8.0 |v3:14|)))
 (let (($x2153 (<= (+ (+ (+ (* 12.0 |v16:1|) (* ?x2299 ?x524)) (* ?x2505 ?x3120)) ?x2576) 16.0)))
 (let ((?x1716 (* 16.0 ?x524)))
 (let (($x902 (<= (+ (+ (+ (* (- 8.0) |v0:17|) (* ?x1561 |v12:5|)) (* ?x2948 |v1:16|)) ?x1716) 19.0)))
 (let ((?x3315 (+ (+ (+ (* 10.0 |v13:4|) (* 3.0 |v1:16|)) (* 6.0 (rval2 |v6:11_st|))) (* 13.0 (rval2 |v6:11_st|)))))
 (let ((?x1970 (* 19.0 |v5:12|)))
 (let ((?x1529 (+ (+ (* ?x2948 |v5:12|) (* ?x1053 |v4:13|)) ?x1970)))
 (let ((?x100 (* ?x3314 ?x524)))
 (let ((?x3172 (+ (+ (+ (* 10.0 ?x3312) (* 4.0 (rval2 |v10:7_st|))) (* (- 7.0) |v0:17|)) ?x100)))
 (let ((?x3502 (+ (+ (+ (* 9.0 ?x3120) (* ?x3401 |v17:0|)) (* ?x1487 |v14:3|)) (* 15.0 |v17:0|))))
 (let (($x565 (and (and (<= ?x3502 5.0) (<= ?x3172 2.0)) (or (<= (+ ?x1529 (* ?x1561 |v15:2|)) ?x1185) (<= ?x3315 17.0)))))
 (let (($x355 (or (or $x565 (or (and $x902 $x2153) (or (<= ?x3122 ?x478) (<= ?x1481 4.0)))) (<= ?x2498 17.0))))
 (let (($x785 (not (= |v6:11_st| (RMk1 val!7547)))))
 (let (($x1017 (not (= |v7:10_st| (RMk1 val!7546)))))
 (let (($x2912 (not (= |v8:9_st| (RMk1 val!7545)))))
 (let (($x2702 (not (= |v9:8_st| (RMk1 val!7544)))))
 (let (($x1978 (not (= |v10:7_st| (RMk1 val!7543)))))
 (let (($x891 (not (= |v11:6_st| (RMk1 val!7542)))))
 (and $x891 $x1978 $x2702 $x2912 $x1017 $x785 (and (or $x355 (and $x986 $x2223)) $x664)))))))))))))))))))))))))))))))))))))))))))))))))))))))))))))))))))))))))))))))))))))))))))))))))))))))))))))))))))))))))))
 )
 )
 )
 )
 )
 )
 )
 )
 )
 )
 )
 )
 )
 )
 )
 )
 )
 )
(check-sat)
